100
128
36
59
38
4
56
17
32
40
55
61
46
57
49
50
11
12
42
8
17
21
63
31
21
47
47
64
45
48
60
58
27
57
33
13
51
15
24
14
42
51
43
50
46
20
2
54
34
18
46
55
37
26
5
56
44
19
43
28
19
31
19
17
43
37
56
5
31
55
3
13
14
16
32
35
60
42
18
23
2
45
51
28
49
40
18
52
48
56
17
17
64
25
24
18
4
6
38
35
28
64